#######################
Slurm job id: 17497813_346
Running on machine: p71
Running cmd: /nfs/shared/static-builds/gurobi1202 SOFTMEMLIMIT=125 MIPFocus=3 Presolve=2 TimeLimit=300 seed=5 /nfs/models/miplib2010/k16x240.mps.bz2
#######################
Set parameter TimeLimit to value 300
Set parameter SoftMemLimit to value 125
Set parameter MIPFocus to value 3
Set parameter LogFile to value 1202-MIPFocus3-Presolve2-TimeLimit300-k16x240-5.log
Set parameter Presolve to value 2
Set parameter Seed to value 5
Using license file /opt/gurobi/gurobi.lic

Gurobi Optimizer version 12.0.2 build v12.0.2rc0 (linux64 - "Ubuntu 22.04.4 LTS")
Copyright (c) 2025, Gurobi Optimization, LLC

Read MPS format model from file /nfs/models/miplib2010/k16x240.mps.bz2
Reading time = 0.00 seconds
k16x240: 256 rows, 480 columns, 960 nonzeros

Using Gurobi shared library /nfs/shared/static-builds/gurobi1202

CPU model: Intel(R) Xeon(R) E-2388G CPU @ 3.20GHz, instruction set [SSE2|AVX|AVX2|AVX512]
Thread count: 8 physical cores, 16 logical processors, using up to 16 threads

Non-default parameters:
TimeLimit  300
SoftMemLimit  125
MIPFocus  3
Presolve  2
Seed  5

Optimize a model with 256 rows, 480 columns and 960 nonzeros
Model fingerprint: 0x4e80885f
Variable types: 240 continuous, 240 integer (240 binary)
Coefficient statistics:
  Matrix range     [1e+00, 1e+03]
  Objective range  [1e+00, 1e+03]
  Bounds range     [1e+00, 1e+03]
  RHS range        [4e+00, 4e+02]
Found heuristic solution: objective 27987.000000
Presolve time: 0.00s
Presolved: 256 rows, 480 columns, 960 nonzeros
Variable types: 240 continuous, 240 integer (240 binary)
Root relaxation presolve removed 241 rows and 240 columns
Root relaxation presolved: 15 rows, 240 columns, 450 nonzeros


Root relaxation: objective 2.769838e+03, 16 iterations, 0.00 seconds (0.00 work units)

    Nodes    |    Current Node    |     Objective Bounds      |     Work
 Expl Unexpl |  Obj  Depth IntInf | Incumbent    BestBd   Gap | It/Node Time

     0     0 2769.83800    0   14 27987.0000 2769.83800  90.1%     -    0s
H    0     0                    11359.000000 2769.83800  75.6%     -    0s
H    0     0                    11262.000000 2769.83800  75.4%     -    0s
H    0     0                    11261.000000 8116.87580  27.9%     -    0s
H    0     0                    11240.000000 8116.87580  27.8%     -    0s
H    0     0                    11164.000000 8116.87580  27.3%     -    0s
H    0     0                    11079.000000 8116.87580  26.7%     -    0s
     0     0 8116.87580    0   26 11079.0000 8116.87580  26.7%     -    0s
H    0     0                    11077.000000 8182.85928  26.1%     -    0s
H    0     0                    11077.000000 8182.85928  26.1%     -    0s
H    0     0                    11036.000000 8182.85928  25.9%     -    0s
H    0     0                    10999.000000 8590.83212  21.9%     -    0s
H    0     0                    10750.000000 8590.83212  20.1%     -    0s
     0     0 8748.17806    0   23 10750.0000 8748.17806  18.6%     -    0s
     0     0 8751.29955    0   20 10750.0000 8751.29955  18.6%     -    0s
     0     0 8810.95744    0   21 10750.0000 8810.95744  18.0%     -    0s
     0     0 8810.95744    0   18 10750.0000 8810.95744  18.0%     -    0s
     0     0 8982.34277    0   28 10750.0000 8982.34277  16.4%     -    0s
H    0     0                    10748.000000 8982.34277  16.4%     -    0s
     0     0 9046.36529    0   35 10748.0000 9046.36529  15.8%     -    0s
     0     0 9130.44480    0   33 10748.0000 9130.44480  15.0%     -    0s
     0     0 9190.87551    0   30 10748.0000 9190.87551  14.5%     -    0s
     0     0 9195.36625    0   30 10748.0000 9195.36625  14.4%     -    0s
H    0     0                    10681.000000 9195.36625  13.9%     -    0s
     0     2 9195.36625    0   30 10681.0000 9195.36625  13.9%     -    0s
H  105   138                    10678.000000 9313.33503  12.8%  46.0    0s
H  585   621                    10674.000000 9515.13905  10.9%  35.7    0s
  5449  3689 10450.1525   24   23 10674.0000 10305.7428  3.45%  85.8    5s
 19098  9307     cutoff   33      10674.0000 10511.9617  1.52%  64.5   10s

Cutting planes:
  Lift-and-project: 7
  Cover: 2
  Implied bound: 13
  Dual implied bound: 7
  MIR: 129
  Flow cover: 532
  Flow path: 34
  Zero half: 28
  Network: 22
  Relax-and-lift: 5

Explored 42708 nodes (1758263 simplex iterations) in 13.34 seconds (18.55 work units)
Thread count was 16 (of 16 available processors)

Solution count 10: 10674 10678 10681 ... 11079

Optimal solution found (tolerance 1.00e-04)
Best objective 1.067400000000e+04, best bound 1.067300000000e+04, gap 0.0094%
